Set parameter TokenServer to value "hpc-licenses.hpcc.usc.edu"
Set parameter TimeLimit to value 3600
Gurobi Optimizer version 9.5.1 build v9.5.1rc2 (linux64)
Thread count: 20 physical cores, 20 logical processors, using up to 20 threads
Optimize a model with 6007 rows, 4529 columns and 24534 nonzeros
Model fingerprint: 0x0c8c68bd
Variable types: 4506 continuous, 23 integer (23 binary)
Coefficient statistics:
  Matrix range     [1e+00, 1e+00]
  Objective range  [3e-03, 8e+00]
  Bounds range     [1e+00, 1e+00]
  RHS range        [1e+00, 6e+01]
Found heuristic solution: objective 226.5220707
Presolve removed 1520 rows and 1515 columns
Presolve time: 0.07s
Presolved: 4487 rows, 3014 columns, 21975 nonzeros
Variable types: 2994 continuous, 20 integer (20 binary)

Root relaxation: objective 2.343576e+02, 2316 iterations, 0.10 seconds (0.14 work units)

    Nodes    |    Current Node    |     Objective Bounds      |     Work
 Expl Unexpl |  Obj  Depth IntInf | Incumbent    BestBd   Gap | It/Node Time

     0     0  234.35759    0    4  226.52207  234.35759  3.46%     -    0s
H    0     0                     226.7629893  234.35759  3.35%     -    0s
     0     0  234.29288    0    4  226.76299  234.29288  3.32%     -    0s
H    0     0                     234.1569909  234.29288  0.06%     -    0s
     0     0  234.25730    0    4  234.15699  234.25730  0.04%     -    0s
     0     0     cutoff    0       234.15699  234.15699  0.00%     -    0s

Explored 1 nodes (3716 simplex iterations) in 0.78 seconds (0.56 work units)
Thread count was 20 (of 20 available processors)

Solution count 3: 234.157 226.763 226.522 

Optimal solution found (tolerance 1.00e-04)
Best objective 2.341569908580e+02, best bound 2.341569908580e+02, gap 0.0000%



#########node  1
V1.9
#########node  2
0.08333333333333333,0.9166666666666666
#########node  3
1.0,0.0


Total Solving Time 1.114853858947754
obj value 234.1569908580112
Policy Regret train (Sum) 10.475852471410601
Best Treatment Found train (%) 51.800000000000004
treatment classification acc train (%) 39.6
Policy Regret test (Sum) 171.07608036179815
Best Treatment Found test (%) 53.010000000000005
treatment classification acc test (%) 41.81
